c FILE: DSJC1000.1
c
c SOURCE: David Johnson (dsj@research.att.com)
c
c DESCRIPTION: Random graph used in the paper
c              "Optimization by Simulated Annealing: An
c               Experimental Evaluation; Part II, Graph
c               Coloring and Number Partitioning" by
c              David S. Johnson, Cecilia R. Aragon, 
c              Lyle A. McGeoch and Catherine Schevon
c              Operations Research, 39, 378-406 (1991)
c
p edge 1000 99258
e 5 2
e 6 4
e 8 4
e 9 7
e 10 6
e 10 7
e 11 6
e 11 7
e 13 10
e 14 8
e 15 11
e 17 1
e 17 6
e 17 8
e 17 12
e 18 4
e 19 6
e 19 18
e 20 2
e 20 15
e 21 9
e 21 10
e 23 5
e 23 14
e 24 1
e 24 12
e 25 18
e 25 20
e 25 24
e 26 10
e 26 14
e 26 20
e 26 21
e 27 14
e 27 16
e 27 17
e 27 24
e 28 8
e 28 26
e 29 9
e 29 14
e 29 15
e 29 19
e 30 11
e 30 13
e 31 5
e 31 11
e 31 26
e 32 26
e 33 30
e 34 15
e 34 16
e 35 22
e 35 33
e 36 3
e 36 5
e 36 12
e 36 18
e 36 35
e 37 2
e 37 6
e 37 14
e 37 31
e 38 5
e 38 15
e 38 37
e 39 1
e 39 10
e 39 21
e 39 22
e 39 37
e 40 3
e 40 8
e 40 23
e 40 29
e 40 38
e 41 1
e 41 18
e 41 20
e 41 33
e 41 34
e 42 5
e 42 15
e 42 16
e 42 31
e 43 7
e 43 12
e 43 16
e 43 24
e 43 25
e 43 30
e 43 40
e 44 3
e 44 18
e 44 20
e 44 32
e 44 34
e 44 35
e 44 36
e 44 43
e 45 4
e 45 34
e 46 23
e 46 25
e 46 26
e 46 29
e 46 33
e 46 34
e 47 3
e 47 40
e 48 4
e 48 17
e 48 24
e 48 36
e 49 4
e 49 6
e 49 14
e 49 19
e 49 30
e 49 37
e 49 40
e 49 47
e 50 15
e 50 38
e 51 20
e 51 35
e 51 48
e 52 1
e 52 5
e 52 13
e 52 20
e 52 51
e 53 12
e 53 27
e 53 29
e 53 50
e 53 51
e 54 5
e 54 8
e 54 11
e 54 14
e 54 15
e 54 22
e 54 26
e 54 38
e 54 44
e 55 8
e 55 10
e 55 14
e 55 16
e 55 22
e 55 32
e 55 33
e 55 39
e 55 44
e 55 46
e 55 54
e 56 2
e 56 6
e 56 19
e 56 46
e 57 2
e 57 4
e 57 10
e 57 15
e 57 19
e 57 20
e 57 38
e 57 42
e 57 43
e 57 44
e 57 45
e 58 12
e 58 17
e 58 22
e 58 24
e 58 54
e 59 7
e 59 41
e 59 44
e 60 10
e 60 21
e 60 22
e 60 31
e 60 46
e 60 55
e 61 13
e 61 29
e 61 34
e 61 38
e 61 39
e 61 42
e 61 44
e 61 48
e 62 12
e 62 26
e 62 35
e 62 47
e 62 53
e 63 8
e 63 27
e 63 40
e 63 54
e 63 55
e 63 58
e 63 59
e 64 3
e 64 17
e 64 18
e 64 36
e 65 12
e 65 15
e 65 20
e 65 23
e 65 26
e 65 31
e 65 42
e 66 4
e 66 6
e 66 7
e 66 12
e 66 14
e 66 26
e 66 38
e 67 1
e 67 10
e 67 27
e 67 30
e 67 37
e 67 57
e 68 8
e 68 21
e 68 41
e 68 46
e 68 52
e 68 56
e 68 57
e 69 2
e 69 3
e 69 7
e 69 10
e 69 27
e 69 35
e 69 48
e 69 53
e 69 56
e 70 29
e 70 57
e 71 6
e 71 13
e 71 17
e 71 20
e 71 23
e 71 32
e 71 33
e 71 48
e 71 61
e 71 63
e 72 3
e 72 14
e 72 30
e 72 31
e 72 46
e 72 52
e 73 26
e 73 33
e 73 66
e 74 16
e 74 37
e 74 54
e 74 56
e 74 62
e 74 68
e 74 73
e 75 40
e 75 47
e 75 53
e 75 57
e 75 63
e 75 65
e 75 73
e 76 10
e 76 46
e 76 54
e 76 62
e 76 69
e 76 74
e 77 8
e 77 9
e 77 16
e 77 25
e 77 48
e 77 60
e 77 64
e 78 4
e 78 5
e 78 24
e 78 27
e 78 30
e 78 37
e 78 51
e 78 66
e 78 68
e 78 70
e 79 16
e 79 20
e 79 31
e 79 38
e 79 44
e 79 45
e 79 50
e 79 52
e 79 58
e 79 61
e 80 23
e 80 26
e 80 53
e 81 10
e 81 13
e 81 20
e 81 28
e 81 47
e 81 49
e 81 62
e 82 1
e 82 2
e 82 46
e 82 49
e 82 68
e 82 69
e 82 76
e 83 13
e 83 16
e 83 20
e 83 42
e 83 47
e 83 79
e 83 80
e 83 82
e 84 8
e 84 34
e 84 38
e 84 40
e 84 46
e 84 59
e 84 69
e 84 80
e 85 1
e 85 13
e 85 18
e 85 70
e 85 83
e 86 4
e 86 8
e 86 13
e 86 26
e 86 47
e 86 52
e 86 60
e 86 63
e 86 75
e 86 80
e 87 13
e 87 22
e 87 39
e 87 47
e 87 49
e 87 53
e 87 57
e 87 61
e 87 75
e 88 13
e 88 47
e 88 50
e 88 59
e 88 61
e 88 65
e 88 74
e 88 80
e 89 17
e 89 19
e 89 33
e 89 46
e 89 48
e 89 73
e 90 16
e 90 27
e 90 32
e 90 35
e 90 40
e 90 58
e 90 62
e 90 65
e 90 67
e 90 79
e 91 21
e 91 25
e 91 41
e 91 54
e 91 61
e 91 69
e 91 72
e 92 23
e 92 24
e 92 35
e 92 36
e 92 46
e 92 80
e 93 2
e 93 14
e 93 18
e 93 29
e 93 31
e 93 73
e 93 85
e 93 91
e 94 1
e 94 14
e 94 23
e 94 35
e 94 84
e 94 85
e 95 14
e 95 15
e 95 16
e 95 27
e 95 38
e 95 78
e 95 82
e 95 84
e 96 28
e 96 31
e 96 32
e 96 48
e 96 55
e 96 63
e 96 82
e 96 84
e 96 93
e 97 10
e 97 23
e 97 29
e 97 38
e 97 43
e 97 74
e 97 82
e 98 2
e 98 8
e 98 23
e 98 67
e 98 80
e 98 86
e 98 90
e 99 12
e 99 14
e 99 17
e 99 33
e 99 38
e 99 41
e 99 43
e 99 46
e 99 56
e 99 60
e 99 63
e 99 65
e 99 97
e 100 3
e 100 7
e 100 13
e 100 27
e 100 28
e 100 29
e 100 35
e 100 72
e 100 85
e 100 86
e 100 93
e 101 1
e 101 2
e 101 3
e 101 20
e 101 22
e 101 25
e 101 31
e 101 36
e 101 93
e 101 98
e 102 11
e 102 14
e 102 25
e 102 36
e 102 37
e 102 44
e 102 78
e 102 87
e 102 99
e 103 5
e 103 13
e 103 34
e 103 39
e 103 47
e 103 64
e 103 65
e 103 79
e 103 85
e 103 98
e 104 11
e 104 18
e 104 25
e 104 34
e 104 61
e 104 65
e 104 85
e 104 90
e 105 6
e 105 20
e 105 23
e 105 26
e 105 34
e 105 47
e 105 55
e 105 83
e 105 96
e 106 5
e 106 18
e 106 24
e 106 25
e 106 44
e 106 52
e 106 60
e 106 72
e 106 98
e 106 102
e 107 2
e 107 9
e 107 13
e 107 15
e 107 20
e 107 41
e 107 44
e 107 47
e 107 51
e 107 65
e 107 69
e 107 71
e 107 81
e 107 90
e 108 2
e 108 17
e 108 24
e 108 47
e 108 64
e 108 73
e 108 78
e 108 96
e 108 97
e 108 100
e 109 26
e 109 28
e 109 31
e 109 47
e 109 49
e 109 62
e 109 68
e 109 69
e 109 79
e 109 108
e 110 3
e 110 7
e 110 8
e 110 15
e 110 51
e 110 56
e 110 60
e 110 66
e 110 67
e 110 73
e 110 106
e 111 5
e 111 6
e 111 11
e 111 47
e 111 50
e 111 55
e 111 56
e 111 78
e 111 91
e 111 100
e 111 102
e 111 105
e 112 3
e 112 12
e 112 27
e 112 40
e 112 46
e 112 51
e 112 52
e 112 68
e 112 71
e 112 73
e 112 74
e 112 84
e 112 95
e 112 96
e 113 17
e 113 18
e 113 20
e 113 39
e 113 63
e 113 104
e 114 20
e 114 21
e 114 34
e 114 48
e 114 49
e 114 53
e 114 56
e 114 57
e 114 70
e 114 75
e 114 76
e 114 92
e 114 112
e 115 27
e 115 28
e 115 30
e 115 39
e 115 43
e 115 52
e 115 53
e 115 54
e 115 55
e 115 64
e 115 72
e 115 73
e 115 109
e 115 114
e 116 25
e 116 42
e 116 48
e 116 56
e 116 60
e 116 63
e 116 80
e 116 87
e 116 90
e 116 96
e 116 97
e 116 100
e 116 102
e 116 103
e 116 111
e 117 19
e 117 24
e 117 42
e 117 49
e 117 55
e 117 61
e 117 70
e 117 87
e 117 96
e 117 113
e 118 10
e 118 13
e 118 30
e 118 47
e 118 56
e 118 68
e 118 74
e 118 77
e 118 87
e 118 93
e 118 94
e 118 107
e 119 1
e 119 26
e 119 49
e 119 61
e 119 69
e 119 72
e 119 74
e 119 94
e 119 115
e 120 3
e 120 14
e 120 22
e 120 31
e 120 38
e 120 39
e 120 42
e 120 44
e 120 47
e 120 52
e 120 69
e 120 92
e 120 93
e 120 99
e 120 100
e 120 107
e 120 112
e 121 15
e 121 37
e 121 49
e 121 54
e 121 65
e 121 71
e 121 72
e 121 80
e 121 85
e 121 89
e 121 99
e 121 106
e 121 120
e 122 14
e 122 35
e 122 36
e 122 39
e 122 48
e 122 63
e 122 85
e 122 86
e 122 87
e 122 90
e 122 112
e 122 117
e 123 9
e 123 11
e 123 16
e 123 20
e 123 22
e 123 41
e 123 60
e 123 76
e 123 93
e 123 94
e 123 95
e 123 97
e 123 99
e 123 101
e 123 103
e 123 118
e 124 3
e 124 7
e 124 10
e 124 12
e 124 14
e 124 27
e 124 35
e 124 36
e 124 57
e 124 58
e 124 59
e 124 62
e 124 74
e 124 98
e 124 104
e 124 115
e 124 117
e 125 15
e 125 26
e 125 35
e 125 45
e 125 48
e 125 53
e 125 70
e 125 81
e 125 84
e 125 105
e 125 121
e 125 123
e 126 16
e 126 32
e 126 58
e 126 65
e 126 80
e 126 97
e 126 114
e 127 8
e 127 14
e 127 20
e 127 37
e 127 65
e 127 68
e 127 70
e 127 118
e 127 125
e 128 4
e 128 10
e 128 49
e 128 56
e 128 59
e 128 63
e 128 72
e 128 73
e 128 78
e 128 85
e 128 88
e 128 115
e 129 12
